NAME           
ROWS
 N  obj        
 E  OBJBM      
 E  DIST1(1.2) 
 E  DIST1(1.3) 
 E  DIST1(1.4) 
 E  DIST1(1.5) 
 E  DIST1(2.3) 
 E  DIST1(2.4) 
 E  DIST1(2.5) 
 E  DIST1(3.4) 
 E  DIST1(3.5) 
 E  DIST1(4.5) 
 E  DIST2(1.2) 
 E  DIST2(1.3) 
 E  DIST2(1.4) 
 E  DIST2(1.5) 
 E  DIST2(2.3) 
 E  DIST2(2.4) 
 E  DIST2(2.5) 
 E  DIST2(3.4) 
 E  DIST2(3.5) 
 E  DIST2(4.5) 
 E  CONNEC(1.2)
 E  CONNEC(1.3)
 E  CONNEC(1.4)
 E  CONNEC(1.5)
 E  CONNEC(2.3)
 E  CONNEC(2.4)
 E  CONNEC(2.5)
 E  CONNEC(3.4)
 E  CONNEC(3.5)
 E  CONNEC(4.5)
 L  DISJ1(1.2) 
 L  DISJ1(1.3) 
 L  DISJ1(1.4) 
 L  DISJ1(1.5) 
 L  DISJ1(2.3) 
 L  DISJ1(2.4) 
 L  DISJ1(2.5) 
 L  DISJ1(3.4) 
 L  DISJ1(3.5) 
 L  DISJ1(4.5) 
 L  DISJ2(1.2) 
 L  DISJ2(1.3) 
 L  DISJ2(1.4) 
 L  DISJ2(1.5) 
 L  DISJ2(2.3) 
 L  DISJ2(2.4) 
 L  DISJ2(2.5) 
 L  DISJ2(3.4) 
 L  DISJ2(3.5) 
 L  DISJ2(4.5) 
 L  DISJ3(1.2) 
 L  DISJ3(1.3) 
 L  DISJ3(1.4) 
 L  DISJ3(1.5) 
 L  DISJ3(2.3) 
 L  DISJ3(2.4) 
 L  DISJ3(2.5) 
 L  DISJ3(3.4) 
 L  DISJ3(3.5) 
 L  DISJ3(4.5) 
 L  DISJ4(1.2) 
 L  DISJ4(1.3) 
 L  DISJ4(1.4) 
 L  DISJ4(1.5) 
 L  DISJ4(2.3) 
 L  DISJ4(2.4) 
 L  DISJ4(2.5) 
 L  DISJ4(3.4) 
 L  DISJ4(3.5) 
 L  DISJ4(4.5) 
 L  DISJ5_1(1) 
 L  DISJ5_1(2) 
 L  DISJ5_1(3) 
 L  DISJ5_1(4) 
 L  DISJ5_1(5) 
 G  DISJ5_2(1) 
 G  DISJ5_2(2) 
 G  DISJ5_2(3) 
 G  DISJ5_2(4) 
 G  DISJ5_2(5) 
 L  DISJ5_3(1) 
 L  DISJ5_3(2) 
 L  DISJ5_3(3) 
 L  DISJ5_3(4) 
 L  DISJ5_3(5) 
 G  DISJ5_4(1) 
 G  DISJ5_4(2) 
 G  DISJ5_4(3) 
 G  DISJ5_4(4) 
 G  DISJ5_4(5) 
 L  DISJ6_1(1) 
 L  DISJ6_1(2) 
 L  DISJ6_1(3) 
 L  DISJ6_1(4) 
 L  DISJ6_1(5) 
 G  DISJ6_2(1) 
 G  DISJ6_2(2) 
 G  DISJ6_2(3) 
 G  DISJ6_2(4) 
 G  DISJ6_2(5) 
 L  DISJ6_3(1) 
 L  DISJ6_3(2) 
 L  DISJ6_3(3) 
 L  DISJ6_3(4) 
 L  DISJ6_3(5) 
 G  DISJ6_4(1) 
 G  DISJ6_4(2) 
 G  DISJ6_4(3) 
 G  DISJ6_4(4) 
 G  DISJ6_4(5) 
 E  BIN1(1.2)  
 E  BIN1(1.3)  
 E  BIN1(1.4)  
 E  BIN1(1.5)  
 E  BIN1(2.3)  
 E  BIN1(2.4)  
 E  BIN1(2.5)  
 E  BIN1(3.4)  
 E  BIN1(3.5)  
 E  BIN1(4.5)  
 E  BIN2(1)    
 E  BIN2(2)    
 E  BIN2(3)    
 E  BIN2(4)    
 E  BIN2(5)    
 L  BNDX(1)    
 L  BNDX(2)    
 L  BNDX(3)    
 L  BNDX(4)    
 L  BNDX(5)    
 G  BNDY(1)    
 G  BNDY(2)    
 G  BNDY(3)    
 G  BNDY(4)    
 G  BNDY(5)    
 G  BOUNDD(1.1)
 G  BOUNDD(1.2)
 G  BOUNDD(1.3)
 G  BOUNDD(1.4)
 G  BOUNDD(1.5)
 G  BOUNDD(2.1)
 G  BOUNDD(2.2)
 G  BOUNDD(2.3)
 G  BOUNDD(2.4)
 G  BOUNDD(2.5)
 G  BOUNDD(3.1)
 G  BOUNDD(3.2)
 G  BOUNDD(3.3)
 G  BOUNDD(3.4)
 G  BOUNDD(3.5)
 G  BOUNDD(4.1)
 G  BOUNDD(4.2)
 G  BOUNDD(4.3)
 G  BOUNDD(4.4)
 G  BOUNDD(4.5)
 G  BOUNDD(5.1)
 G  BOUNDD(5.2)
 G  BOUNDD(5.3)
 G  BOUNDD(5.4)
 G  BOUNDD(5.5)
COLUMNS
    X(1)         obj                 -1200   DIST1(1.2)             -1
    X(1)         DIST1(1.3)             -1   DIST1(1.4)             -1
    X(1)         DIST1(1.5)             -1   DISJ1(1.2)              1
    X(1)         DISJ1(1.3)              1   DISJ1(1.4)              1
    X(1)         DISJ1(1.5)              1   DISJ2(1.2)             -1
    X(1)         DISJ2(1.3)             -1   DISJ2(1.4)             -1
    X(1)         DISJ2(1.5)             -1   BNDX(1)                 1
    X(2)         obj                 -3800   DIST1(1.2)              1
    X(2)         DIST1(2.3)             -1   DIST1(2.4)             -1
    X(2)         DIST1(2.5)             -1   DISJ1(1.2)             -1
    X(2)         DISJ1(2.3)              1   DISJ1(2.4)              1
    X(2)         DISJ1(2.5)              1   DISJ2(1.2)              1
    X(2)         DISJ2(2.3)             -1   DISJ2(2.4)             -1
    X(2)         DISJ2(2.5)             -1   BNDX(2)                 1
    X(3)         obj                 -1960   DIST1(1.3)              1
    X(3)         DIST1(2.3)              1   DIST1(3.4)             -1
    X(3)         DIST1(3.5)             -1   DISJ1(1.3)             -1
    X(3)         DISJ1(2.3)             -1   DISJ1(3.4)              1
    X(3)         DISJ1(3.5)              1   DISJ2(1.3)              1
    X(3)         DISJ2(2.3)              1   DISJ2(3.4)             -1
    X(3)         DISJ2(3.5)             -1   BNDX(3)                 1
    X(4)         obj                 -1020   DIST1(1.4)              1
    X(4)         DIST1(2.4)              1   DIST1(3.4)              1
    X(4)         DIST1(4.5)             -1   DISJ1(1.4)             -1
    X(4)         DISJ1(2.4)             -1   DISJ1(3.4)             -1
    X(4)         DISJ1(4.5)              1   DISJ2(1.4)              1
    X(4)         DISJ2(2.4)              1   DISJ2(3.4)              1
    X(4)         DISJ2(4.5)             -1   BNDX(4)                 1
    X(5)         obj                  -240   DIST1(1.5)              1
    X(5)         DIST1(2.5)              1   DIST1(3.5)              1
    X(5)         DIST1(4.5)              1   DISJ1(1.5)             -1
    X(5)         DISJ1(2.5)             -1   DISJ1(3.5)             -1
    X(5)         DISJ1(4.5)             -1   DISJ2(1.5)              1
    X(5)         DISJ2(2.5)              1   DISJ2(3.5)              1
    X(5)         DISJ2(4.5)              1   BNDX(5)                 1
    Y(1)         obj                 -3000   DIST2(1.2)             -1
    Y(1)         DIST2(1.3)             -1   DIST2(1.4)             -1
    Y(1)         DIST2(1.5)             -1   DISJ3(1.2)             -1
    Y(1)         DISJ3(1.3)             -1   DISJ3(1.4)             -1
    Y(1)         DISJ3(1.5)             -1   DISJ4(1.2)              1
    Y(1)         DISJ4(1.3)              1   DISJ4(1.4)              1
    Y(1)         DISJ4(1.5)              1   BNDY(1)                 1
    Y(2)         obj                 -5700   DIST2(1.2)              1
    Y(2)         DIST2(2.3)             -1   DIST2(2.4)             -1
    Y(2)         DIST2(2.5)             -1   DISJ3(1.2)              1
    Y(2)         DISJ3(2.3)             -1   DISJ3(2.4)             -1
    Y(2)         DISJ3(2.5)             -1   DISJ4(1.2)             -1
    Y(2)         DISJ4(2.3)              1   DISJ4(2.4)              1
    Y(2)         DISJ4(2.5)              1   BNDY(2)                 1
    Y(3)         obj                 -2520   DIST2(1.3)              1
    Y(3)         DIST2(2.3)              1   DIST2(3.4)             -1
    Y(3)         DIST2(3.5)             -1   DISJ3(1.3)              1
    Y(3)         DISJ3(2.3)              1   DISJ3(3.4)             -1
    Y(3)         DISJ3(3.5)             -1   DISJ4(1.3)             -1
    Y(3)         DISJ4(2.3)             -1   DISJ4(3.4)              1
    Y(3)         DISJ4(3.5)              1   BNDY(3)                 1
    Y(4)         obj                 -1020   DIST2(1.4)              1
    Y(4)         DIST2(2.4)              1   DIST2(3.4)              1
    Y(4)         DIST2(4.5)             -1   DISJ3(1.4)              1
    Y(4)         DISJ3(2.4)              1   DISJ3(3.4)              1
    Y(4)         DISJ3(4.5)             -1   DISJ4(1.4)             -1
    Y(4)         DISJ4(2.4)             -1   DISJ4(3.4)             -1
    Y(4)         DISJ4(4.5)              1   BNDY(4)                 1
    Y(5)         obj                 -1200   DIST2(1.5)              1
    Y(5)         DIST2(2.5)              1   DIST2(3.5)              1
    Y(5)         DIST2(4.5)              1   DISJ3(1.5)              1
    Y(5)         DISJ3(2.5)              1   DISJ3(3.5)              1
    Y(5)         DISJ3(4.5)              1   DISJ4(1.5)             -1
    Y(5)         DISJ4(2.5)             -1   DISJ4(3.5)             -1
    Y(5)         DISJ4(4.5)             -1   BNDY(5)                 1
    MARK0000  'MARKER'                 'INTORG'
    Z(1.1.2)     DISJ1(1.2)             53   BIN1(1.2)               1
    Z(1.1.3)     DISJ1(1.3)             53   BIN1(1.3)               1
    Z(1.1.4)     DISJ1(1.4)             53   BIN1(1.4)               1
    Z(1.1.5)     DISJ1(1.5)             53   BIN1(1.5)               1
    Z(1.2.3)     DISJ1(2.3)             53   BIN1(2.3)               1
    Z(1.2.4)     DISJ1(2.4)             53   BIN1(2.4)               1
    Z(1.2.5)     DISJ1(2.5)             53   BIN1(2.5)               1
    Z(1.3.4)     DISJ1(3.4)             53   BIN1(3.4)               1
    Z(1.3.5)     DISJ1(3.5)             53   BIN1(3.5)               1
    Z(1.4.5)     DISJ1(4.5)             53   BIN1(4.5)               1
    Z(2.1.2)     DISJ2(1.2)             53   BIN1(1.2)               1
    Z(2.1.3)     DISJ2(1.3)             53   BIN1(1.3)               1
    Z(2.1.4)     DISJ2(1.4)             53   BIN1(1.4)               1
    Z(2.1.5)     DISJ2(1.5)             53   BIN1(1.5)               1
    Z(2.2.3)     DISJ2(2.3)             53   BIN1(2.3)               1
    Z(2.2.4)     DISJ2(2.4)             53   BIN1(2.4)               1
    Z(2.2.5)     DISJ2(2.5)             53   BIN1(2.5)               1
    Z(2.3.4)     DISJ2(3.4)             53   BIN1(3.4)               1
    Z(2.3.5)     DISJ2(3.5)             53   BIN1(3.5)               1
    Z(2.4.5)     DISJ2(4.5)             53   BIN1(4.5)               1
    Z(3.1.2)     DISJ3(1.2)             53   BIN1(1.2)               1
    Z(3.1.3)     DISJ3(1.3)             53   BIN1(1.3)               1
    Z(3.1.4)     DISJ3(1.4)             53   BIN1(1.4)               1
    Z(3.1.5)     DISJ3(1.5)             53   BIN1(1.5)               1
    Z(3.2.3)     DISJ3(2.3)             53   BIN1(2.3)               1
    Z(3.2.4)     DISJ3(2.4)             53   BIN1(2.4)               1
    Z(3.2.5)     DISJ3(2.5)             53   BIN1(2.5)               1
    Z(3.3.4)     DISJ3(3.4)             53   BIN1(3.4)               1
    Z(3.3.5)     DISJ3(3.5)             53   BIN1(3.5)               1
    Z(3.4.5)     DISJ3(4.5)             53   BIN1(4.5)               1
    Z(4.1.2)     DISJ4(1.2)             53   BIN1(1.2)               1
    Z(4.1.3)     DISJ4(1.3)             53   BIN1(1.3)               1
    Z(4.1.4)     DISJ4(1.4)             53   BIN1(1.4)               1
    Z(4.1.5)     DISJ4(1.5)             53   BIN1(1.5)               1
    Z(4.2.3)     DISJ4(2.3)             53   BIN1(2.3)               1
    Z(4.2.4)     DISJ4(2.4)             53   BIN1(2.4)               1
    Z(4.2.5)     DISJ4(2.5)             53   BIN1(2.5)               1
    Z(4.3.4)     DISJ4(3.4)             53   BIN1(3.4)               1
    Z(4.3.5)     DISJ4(3.5)             53   BIN1(3.5)               1
    Z(4.4.5)     DISJ4(4.5)             53   BIN1(4.5)               1
    W(1.1)       DISJ5_2(1)             -3   DISJ5_3(1)              3
    W(1.1)       BIN2(1)                 1
    W(1.2)       DISJ5_1(2)              6   DISJ5_4(2)             -6
    W(1.2)       BIN2(2)                 1
    W(1.3)       DISJ5_1(3)              3   DISJ5_4(3)             -3
    W(1.3)       BIN2(3)                 1
    W(1.4)       DISJ5_1(4)              1   DISJ5_4(4)             -1
    W(1.4)       BIN2(4)                 1
    W(1.5)       DISJ5_1(5)              1   DISJ5_4(5)             -1
    W(1.5)       BIN2(5)                 1
    W(2.1)       DISJ6_1(1)              3   DISJ6_4(1)             -3
    W(2.1)       BIN2(1)                 1
    W(2.2)       DISJ6_2(2)             -6   DISJ6_3(2)              6
    W(2.2)       BIN2(2)                 1
    W(2.3)       DISJ6_2(3)             -3   DISJ6_3(3)              3
    W(2.3)       BIN2(3)                 1
    W(2.4)       DISJ6_2(4)             -1   DISJ6_3(4)              1
    W(2.4)       BIN2(4)                 1
    W(2.5)       DISJ6_2(5)             -1   DISJ6_3(5)              1
    W(2.5)       BIN2(5)                 1
    MARK0001  'MARKER'                 'INTEND'
    L(1)         DISJ1(1.2)              1   DISJ1(1.3)              1
    L(1)         DISJ1(1.4)              1   DISJ1(1.5)              1
    L(1)         DISJ5_3(1)              1   DISJ5_4(1)              1
    L(1)         DISJ6_3(1)              1   DISJ6_4(1)              1
    L(1)         BNDX(1)                 1
    L(2)         DISJ1(2.3)              1   DISJ1(2.4)              1
    L(2)         DISJ1(2.5)              1   DISJ2(1.2)              1
    L(2)         DISJ5_3(2)              1   DISJ5_4(2)              1
    L(2)         DISJ6_3(2)              1   DISJ6_4(2)              1
    L(2)         BNDX(2)                 1
    L(3)         DISJ1(3.4)              1   DISJ1(3.5)              1
    L(3)         DISJ2(1.3)              1   DISJ2(2.3)              1
    L(3)         DISJ5_3(3)              1   DISJ5_4(3)              1
    L(3)         DISJ6_3(3)              1   DISJ6_4(3)              1
    L(3)         BNDX(3)                 1
    L(4)         DISJ1(4.5)              1   DISJ2(1.4)              1
    L(4)         DISJ2(2.4)              1   DISJ2(3.4)              1
    L(4)         DISJ5_3(4)              1   DISJ5_4(4)              1
    L(4)         DISJ6_3(4)              1   DISJ6_4(4)              1
    L(4)         BNDX(4)                 1
    L(5)         DISJ2(1.5)              1   DISJ2(2.5)              1
    L(5)         DISJ2(3.5)              1   DISJ2(4.5)              1
    L(5)         DISJ5_3(5)              1   DISJ5_4(5)              1
    L(5)         DISJ6_3(5)              1   DISJ6_4(5)              1
    L(5)         BNDX(5)                 1
    H(1)         DISJ3(1.2)              1   DISJ3(1.3)              1
    H(1)         DISJ3(1.4)              1   DISJ3(1.5)              1
    H(1)         DISJ5_1(1)              1   DISJ5_2(1)              1
    H(1)         DISJ6_1(1)              1   DISJ6_2(1)              1
    H(1)         BNDY(1)                -1
    H(2)         DISJ3(2.3)              1   DISJ3(2.4)              1
    H(2)         DISJ3(2.5)              1   DISJ4(1.2)              1
    H(2)         DISJ5_1(2)              1   DISJ5_2(2)              1
    H(2)         DISJ6_1(2)              1   DISJ6_2(2)              1
    H(2)         BNDY(2)                -1
    H(3)         DISJ3(3.4)              1   DISJ3(3.5)              1
    H(3)         DISJ4(1.3)              1   DISJ4(2.3)              1
    H(3)         DISJ5_1(3)              1   DISJ5_2(3)              1
    H(3)         DISJ6_1(3)              1   DISJ6_2(3)              1
    H(3)         BNDY(3)                -1
    H(4)         DISJ3(4.5)              1   DISJ4(1.4)              1
    H(4)         DISJ4(2.4)              1   DISJ4(3.4)              1
    H(4)         DISJ5_1(4)              1   DISJ5_2(4)              1
    H(4)         DISJ6_1(4)              1   DISJ6_2(4)              1
    H(4)         BNDY(4)                -1
    H(5)         DISJ4(1.5)              1   DISJ4(2.5)              1
    H(5)         DISJ4(3.5)              1   DISJ4(4.5)              1
    H(5)         DISJ5_1(5)              1   DISJ5_2(5)              1
    H(5)         DISJ6_1(5)              1   DISJ6_2(5)              1
    H(5)         BNDY(5)                -1
    D(1.1)       BOUNDD(1.1)             1
    D(1.2)       obj                   300   CONNEC(1.2)             1
    D(1.2)       BOUNDD(1.2)             1
    D(1.3)       obj                   400   CONNEC(1.3)             1
    D(1.3)       BOUNDD(1.3)             1
    D(1.4)       CONNEC(1.4)             1   BOUNDD(1.4)             1
    D(1.5)       CONNEC(1.5)             1   BOUNDD(1.5)             1
    D(2.1)       BOUNDD(2.1)             1
    D(2.2)       BOUNDD(2.2)             1
    D(2.3)       obj                    85   CONNEC(2.3)             1
    D(2.3)       BOUNDD(2.3)             1
    D(2.4)       CONNEC(2.4)             1   BOUNDD(2.4)             1
    D(2.5)       CONNEC(2.5)             1   BOUNDD(2.5)             1
    D(3.1)       BOUNDD(3.1)             1
    D(3.2)       BOUNDD(3.2)             1
    D(3.3)       BOUNDD(3.3)             1
    D(3.4)       obj                    75   CONNEC(3.4)             1
    D(3.4)       BOUNDD(3.4)             1
    D(3.5)       obj                    60   CONNEC(3.5)             1
    D(3.5)       BOUNDD(3.5)             1
    D(4.1)       BOUNDD(4.1)             1
    D(4.2)       BOUNDD(4.2)             1
    D(4.3)       BOUNDD(4.3)             1
    D(4.4)       BOUNDD(4.4)             1
    D(4.5)       obj                   100   CONNEC(4.5)             1
    D(4.5)       BOUNDD(4.5)             1
    D(5.1)       BOUNDD(5.1)             1
    D(5.2)       BOUNDD(5.2)             1
    D(5.3)       BOUNDD(5.3)             1
    D(5.4)       BOUNDD(5.4)             1
    D(5.5)       BOUNDD(5.5)             1
    DELX1(1.2)   DIST1(1.2)              1   CONNEC(1.2)            -1
    DELX1(1.3)   DIST1(1.3)              1   CONNEC(1.3)            -1
    DELX1(1.4)   DIST1(1.4)              1   CONNEC(1.4)            -1
    DELX1(1.5)   DIST1(1.5)              1   CONNEC(1.5)            -1
    DELX1(2.3)   DIST1(2.3)              1   CONNEC(2.3)            -1
    DELX1(2.4)   DIST1(2.4)              1   CONNEC(2.4)            -1
    DELX1(2.5)   DIST1(2.5)              1   CONNEC(2.5)            -1
    DELX1(3.4)   DIST1(3.4)              1   CONNEC(3.4)            -1
    DELX1(3.5)   DIST1(3.5)              1   CONNEC(3.5)            -1
    DELX1(4.5)   DIST1(4.5)              1   CONNEC(4.5)            -1
    DELX2(1.2)   DIST1(1.2)             -1   CONNEC(1.2)            -1
    DELX2(1.3)   DIST1(1.3)             -1   CONNEC(1.3)            -1
    DELX2(1.4)   DIST1(1.4)             -1   CONNEC(1.4)            -1
    DELX2(1.5)   DIST1(1.5)             -1   CONNEC(1.5)            -1
    DELX2(2.3)   DIST1(2.3)             -1   CONNEC(2.3)            -1
    DELX2(2.4)   DIST1(2.4)             -1   CONNEC(2.4)            -1
    DELX2(2.5)   DIST1(2.5)             -1   CONNEC(2.5)            -1
    DELX2(3.4)   DIST1(3.4)             -1   CONNEC(3.4)            -1
    DELX2(3.5)   DIST1(3.5)             -1   CONNEC(3.5)            -1
    DELX2(4.5)   DIST1(4.5)             -1   CONNEC(4.5)            -1
    DELY1(1.2)   DIST2(1.2)              1   CONNEC(1.2)            -1
    DELY1(1.3)   DIST2(1.3)              1   CONNEC(1.3)            -1
    DELY1(1.4)   DIST2(1.4)              1   CONNEC(1.4)            -1
    DELY1(1.5)   DIST2(1.5)              1   CONNEC(1.5)            -1
    DELY1(2.3)   DIST2(2.3)              1   CONNEC(2.3)            -1
    DELY1(2.4)   DIST2(2.4)              1   CONNEC(2.4)            -1
    DELY1(2.5)   DIST2(2.5)              1   CONNEC(2.5)            -1
    DELY1(3.4)   DIST2(3.4)              1   CONNEC(3.4)            -1
    DELY1(3.5)   DIST2(3.5)              1   CONNEC(3.5)            -1
    DELY1(4.5)   DIST2(4.5)              1   CONNEC(4.5)            -1
    DELY2(1.2)   DIST2(1.2)             -1   CONNEC(1.2)            -1
    DELY2(1.3)   DIST2(1.3)             -1   CONNEC(1.3)            -1
    DELY2(1.4)   DIST2(1.4)             -1   CONNEC(1.4)            -1
    DELY2(1.5)   DIST2(1.5)             -1   CONNEC(1.5)            -1
    DELY2(2.3)   DIST2(2.3)             -1   CONNEC(2.3)            -1
    DELY2(2.4)   DIST2(2.4)             -1   CONNEC(2.4)            -1
    DELY2(2.5)   DIST2(2.5)             -1   CONNEC(2.5)            -1
    DELY2(3.4)   DIST2(3.4)             -1   CONNEC(3.4)            -1
    DELY2(3.5)   DIST2(3.5)             -1   CONNEC(3.5)            -1
    DELY2(4.5)   DIST2(4.5)             -1   CONNEC(4.5)            -1
    OBJ          obj                     1   OBJBM                   1
RHS
    rhs          OBJBM              103530   DISJ1(1.2)             53
    rhs          DISJ1(1.3)             53   DISJ1(1.4)             53
    rhs          DISJ1(1.5)             53   DISJ1(2.3)             53
    rhs          DISJ1(2.4)             53   DISJ1(2.5)             53
    rhs          DISJ1(3.4)             53   DISJ1(3.5)             53
    rhs          DISJ1(4.5)             53   DISJ2(1.2)             53
    rhs          DISJ2(1.3)             53   DISJ2(1.4)             53
    rhs          DISJ2(1.5)             53   DISJ2(2.3)             53
    rhs          DISJ2(2.4)             53   DISJ2(2.5)             53
    rhs          DISJ2(3.4)             53   DISJ2(3.5)             53
    rhs          DISJ2(4.5)             53   DISJ3(1.2)             53
    rhs          DISJ3(1.3)             53   DISJ3(1.4)             53
    rhs          DISJ3(1.5)             53   DISJ3(2.3)             53
    rhs          DISJ3(2.4)             53   DISJ3(2.5)             53
    rhs          DISJ3(3.4)             53   DISJ3(3.5)             53
    rhs          DISJ3(4.5)             53   DISJ4(1.2)             53
    rhs          DISJ4(1.3)             53   DISJ4(1.4)             53
    rhs          DISJ4(1.5)             53   DISJ4(2.3)             53
    rhs          DISJ4(2.4)             53   DISJ4(2.5)             53
    rhs          DISJ4(3.4)             53   DISJ4(3.5)             53
    rhs          DISJ4(4.5)             53   DISJ5_1(1)              8
    rhs          DISJ5_1(2)             11   DISJ5_1(3)              7
    rhs          DISJ5_1(4)              8   DISJ5_1(5)              3
    rhs          DISJ5_2(1)              5   DISJ5_2(2)              5
    rhs          DISJ5_2(3)              4   DISJ5_2(4)              7
    rhs          DISJ5_2(5)              2   DISJ5_3(1)              8
    rhs          DISJ5_3(2)             11   DISJ5_3(3)              7
    rhs          DISJ5_3(4)              8   DISJ5_3(5)              3
    rhs          DISJ5_4(1)              5   DISJ5_4(2)              5
    rhs          DISJ5_4(3)              4   DISJ5_4(4)              7
    rhs          DISJ5_4(5)              2   DISJ6_1(1)              8
    rhs          DISJ6_1(2)             11   DISJ6_1(3)              7
    rhs          DISJ6_1(4)              8   DISJ6_1(5)              3
    rhs          DISJ6_2(1)              5   DISJ6_2(2)              5
    rhs          DISJ6_2(3)              4   DISJ6_2(4)              7
    rhs          DISJ6_2(5)              2   DISJ6_3(1)              8
    rhs          DISJ6_3(2)             11   DISJ6_3(3)              7
    rhs          DISJ6_3(4)              8   DISJ6_3(5)              3
    rhs          DISJ6_4(1)              5   DISJ6_4(2)              5
    rhs          DISJ6_4(3)              4   DISJ6_4(4)              7
    rhs          DISJ6_4(5)              2   BIN1(1.2)               1
    rhs          BIN1(1.3)               1   BIN1(1.4)               1
    rhs          BIN1(1.5)               1   BIN1(2.3)               1
    rhs          BIN1(2.4)               1   BIN1(2.5)               1
    rhs          BIN1(3.4)               1   BIN1(3.5)               1
    rhs          BIN1(4.5)               1   BIN2(1)                 1
    rhs          BIN2(2)                 1   BIN2(3)                 1
    rhs          BIN2(4)                 1   BIN2(5)                 1
    rhs          BNDX(1)                53   BNDX(2)                53
    rhs          BNDX(3)                53   BNDX(4)                53
    rhs          BNDX(5)                53   BOUNDD(1.2)             5
    rhs          BOUNDD(1.3)             4   BOUNDD(1.4)             5
    rhs          BOUNDD(1.5)             2   BOUNDD(2.3)             4
    rhs          BOUNDD(2.4)             5   BOUNDD(2.5)             2
    rhs          BOUNDD(3.4)             4   BOUNDD(3.5)             2
    rhs          BOUNDD(4.5)             2
BOUNDS
 UP bnd          Y(1)                   53
 UP bnd          Y(2)                   53
 UP bnd          Y(3)                   53
 UP bnd          Y(4)                   53
 UP bnd          Y(5)                   53
 UP bnd          Z(1.1.2)                1
 UP bnd          Z(1.1.3)                1
 UP bnd          Z(1.1.4)                1
 UP bnd          Z(1.1.5)                1
 UP bnd          Z(1.2.3)                1
 UP bnd          Z(1.2.4)                1
 UP bnd          Z(1.2.5)                1
 UP bnd          Z(1.3.4)                1
 UP bnd          Z(1.3.5)                1
 UP bnd          Z(1.4.5)                1
 UP bnd          Z(2.1.2)                1
 UP bnd          Z(2.1.3)                1
 UP bnd          Z(2.1.4)                1
 UP bnd          Z(2.1.5)                1
 UP bnd          Z(2.2.3)                1
 UP bnd          Z(2.2.4)                1
 UP bnd          Z(2.2.5)                1
 UP bnd          Z(2.3.4)                1
 UP bnd          Z(2.3.5)                1
 UP bnd          Z(2.4.5)                1
 UP bnd          Z(3.1.2)                1
 UP bnd          Z(3.1.3)                1
 UP bnd          Z(3.1.4)                1
 UP bnd          Z(3.1.5)                1
 UP bnd          Z(3.2.3)                1
 UP bnd          Z(3.2.4)                1
 UP bnd          Z(3.2.5)                1
 UP bnd          Z(3.3.4)                1
 UP bnd          Z(3.3.5)                1
 UP bnd          Z(3.4.5)                1
 UP bnd          Z(4.1.2)                1
 UP bnd          Z(4.1.3)                1
 UP bnd          Z(4.1.4)                1
 UP bnd          Z(4.1.5)                1
 UP bnd          Z(4.2.3)                1
 UP bnd          Z(4.2.4)                1
 UP bnd          Z(4.2.5)                1
 UP bnd          Z(4.3.4)                1
 UP bnd          Z(4.3.5)                1
 UP bnd          Z(4.4.5)                1
 UP bnd          W(1.1)                  1
 UP bnd          W(1.2)                  1
 UP bnd          W(1.3)                  1
 UP bnd          W(1.4)                  1
 UP bnd          W(1.5)                  1
 UP bnd          W(2.1)                  1
 UP bnd          W(2.2)                  1
 UP bnd          W(2.3)                  1
 UP bnd          W(2.4)                  1
 UP bnd          W(2.5)                  1
 FR bnd          OBJ        
QUADOBJ
    X(1)         X(1)                  300
    X(2)         X(2)                  380
    X(3)         X(3)                  280
    X(4)         X(4)                  340
    X(5)         X(5)                  240
    Y(1)         Y(1)                  300
    Y(2)         Y(2)                  380
    Y(3)         Y(3)                  280
    Y(4)         Y(4)                  340
    Y(5)         Y(5)                  240
ENDATA
